(set-info :smt-lib-version 2.6)
(set-logic UFLRA)
(set-info :source |
Generated by: Geoff Sutcliffe
Generated on: 2026-03-11
Generator: TPTPWorld
Application: Benchmarking automated theorem provers
Time limit: 120.0

These benchmarks are translations from the TPTP Library (Thousands of
Problems for Theorem Provers), see http://www.cs.miami.edu/~tptp/

The TPTP is maintained by Geoff Sutcliffe, and he contributed this
selection of benchmarks to SMT-LIB.  They were exported from the
v9.2.1 realease of TPTP.
|)
(set-info :category "industrial")
(set-info :status "unknown")
; SZS status Success
(declare-sort $$unsorted 0)
(declare-fun tptp.l14 () Real)
(declare-fun tptp.l39 () Real)
(declare-fun tptp.l4 () Real)
(declare-fun tptp.l45 () Real)
(declare-fun tptp.l5 () Real)
(declare-fun tptp.l32 () Real)
(declare-fun tptp.l30 () Real)
(declare-fun tptp.l57 () Real)
(declare-fun tptp.f0 (Real) Real)
(declare-fun tptp.l48 () Real)
(declare-fun tptp.l31 () Real)
(declare-fun tptp.l16 () Real)
(declare-fun tptp.l33 () Real)
(declare-fun tptp.l18 () Real)
(declare-fun tptp.l40 () Real)
(declare-fun tptp.l47 () Real)
(declare-fun tptp.l62 () Real)
(declare-fun tptp.l24 () Real)
(declare-fun tptp.l20 () Real)
(declare-fun tptp.l51 () Real)
(declare-fun tptp.l36 () Real)
(declare-fun tptp.l59 () Real)
(declare-fun tptp.l54 () Real)
(declare-fun tptp.l53 () Real)
(declare-fun tptp.l46 () Real)
(declare-fun tptp.l21 () Real)
(declare-fun tptp.f2 (Real) Real)
(declare-fun tptp.l60 () Real)
(declare-fun tptp.l2 () Real)
(declare-fun tptp.l50 () Real)
(declare-fun tptp.l58 () Real)
(declare-fun tptp.l49 () Real)
(declare-fun tptp.l44 () Real)
(declare-fun tptp.a () Real)
(declare-fun tptp.l55 () Real)
(declare-fun tptp.l15 () Real)
(declare-fun tptp.l25 () Real)
(declare-fun tptp.l35 () Real)
(declare-fun tptp.f1 (Real) Real)
(declare-fun tptp.l27 () Real)
(declare-fun tptp.l37 () Real)
(declare-fun tptp.l10 () Real)
(declare-fun tptp.l1 () Real)
(declare-fun tptp.l63 () Real)
(declare-fun tptp.l13 () Real)
(declare-fun tptp.l26 () Real)
(declare-fun tptp.l19 () Real)
(declare-fun tptp.l34 () Real)
(declare-fun tptp.l23 () Real)
(declare-fun tptp.l28 () Real)
(declare-fun tptp.l38 () Real)
(declare-fun tptp.l43 () Real)
(declare-fun tptp.l52 () Real)
(declare-fun tptp.l11 () Real)
(declare-fun tptp.l61 () Real)
(declare-fun tptp.l7 () Real)
(declare-fun tptp.l17 () Real)
(declare-fun tptp.l () Real)
(declare-fun tptp.l29 () Real)
(declare-fun tptp.l22 () Real)
(declare-fun tptp.l9 () Real)
(declare-fun tptp.l3 () Real)
(declare-fun tptp.f3 (Real) Real)
(declare-fun tptp.l41 () Real)
(declare-fun tptp.l56 () Real)
(declare-fun tptp.l12 () Real)
(declare-fun tptp.l42 () Real)
(declare-fun tptp.l8 () Real)
(declare-fun tptp.l6 () Real)
(assert (forall ((Epsilon Real)) (=> (< 0.0 Epsilon) (exists ((Delta Real)) (and (< 0.0 Delta) (forall ((X Real)) (let ((_let_1 (- (tptp.f3 X) tptp.l))) (let ((_let_2 (>= _let_1 0.0))) (let ((_let_3 (- X tptp.l1))) (let ((_let_4 (>= _let_3 0.0))) (=> (and (not (= X tptp.l1)) (=> _let_4 (< _let_3 Delta)) (=> (not _let_4) (< (- _let_3) Delta))) (and (=> _let_2 (< _let_1 Epsilon)) (=> (not _let_2) (< (- _let_1) Epsilon))))))))))))))
(assert (forall ((Epsilon Real)) (=> (< 0.0 Epsilon) (exists ((Delta Real)) (and (< 0.0 Delta) (forall ((X Real)) (let ((_let_1 (- (tptp.f2 X) tptp.l1))) (let ((_let_2 (>= _let_1 0.0))) (let ((_let_3 (- X tptp.l2))) (let ((_let_4 (>= _let_3 0.0))) (=> (and (not (= X tptp.l2)) (=> _let_4 (< _let_3 Delta)) (=> (not _let_4) (< (- _let_3) Delta))) (and (=> _let_2 (< _let_1 Epsilon)) (=> (not _let_2) (< (- _let_1) Epsilon))))))))))))))
(assert (forall ((Epsilon Real)) (=> (< 0.0 Epsilon) (exists ((Delta Real)) (and (< 0.0 Delta) (forall ((X Real)) (let ((_let_1 (- (tptp.f1 X) tptp.l2))) (let ((_let_2 (>= _let_1 0.0))) (let ((_let_3 (- X tptp.l3))) (let ((_let_4 (>= _let_3 0.0))) (=> (and (not (= X tptp.l3)) (=> _let_4 (< _let_3 Delta)) (=> (not _let_4) (< (- _let_3) Delta))) (and (=> _let_2 (< _let_1 Epsilon)) (=> (not _let_2) (< (- _let_1) Epsilon))))))))))))))
(assert (forall ((Epsilon Real)) (=> (< 0.0 Epsilon) (exists ((Delta Real)) (and (< 0.0 Delta) (forall ((X Real)) (let ((_let_1 (- (tptp.f0 X) tptp.l3))) (let ((_let_2 (>= _let_1 0.0))) (let ((_let_3 (- X tptp.l4))) (let ((_let_4 (>= _let_3 0.0))) (=> (and (not (= X tptp.l4)) (=> _let_4 (< _let_3 Delta)) (=> (not _let_4) (< (- _let_3) Delta))) (and (=> _let_2 (< _let_1 Epsilon)) (=> (not _let_2) (< (- _let_1) Epsilon))))))))))))))
(assert (forall ((Epsilon Real)) (=> (< 0.0 Epsilon) (exists ((Delta Real)) (and (< 0.0 Delta) (forall ((X Real)) (let ((_let_1 (- (tptp.f1 X) tptp.l4))) (let ((_let_2 (>= _let_1 0.0))) (let ((_let_3 (- X tptp.l5))) (let ((_let_4 (>= _let_3 0.0))) (=> (and (not (= X tptp.l5)) (=> _let_4 (< _let_3 Delta)) (=> (not _let_4) (< (- _let_3) Delta))) (and (=> _let_2 (< _let_1 Epsilon)) (=> (not _let_2) (< (- _let_1) Epsilon))))))))))))))
(assert (forall ((Epsilon Real)) (=> (< 0.0 Epsilon) (exists ((Delta Real)) (and (< 0.0 Delta) (forall ((X Real)) (let ((_let_1 (- (tptp.f3 X) tptp.l5))) (let ((_let_2 (>= _let_1 0.0))) (let ((_let_3 (- X tptp.l6))) (let ((_let_4 (>= _let_3 0.0))) (=> (and (not (= X tptp.l6)) (=> _let_4 (< _let_3 Delta)) (=> (not _let_4) (< (- _let_3) Delta))) (and (=> _let_2 (< _let_1 Epsilon)) (=> (not _let_2) (< (- _let_1) Epsilon))))))))))))))
(assert (forall ((Epsilon Real)) (=> (< 0.0 Epsilon) (exists ((Delta Real)) (and (< 0.0 Delta) (forall ((X Real)) (let ((_let_1 (- (tptp.f1 X) tptp.l6))) (let ((_let_2 (>= _let_1 0.0))) (let ((_let_3 (- X tptp.l7))) (let ((_let_4 (>= _let_3 0.0))) (=> (and (not (= X tptp.l7)) (=> _let_4 (< _let_3 Delta)) (=> (not _let_4) (< (- _let_3) Delta))) (and (=> _let_2 (< _let_1 Epsilon)) (=> (not _let_2) (< (- _let_1) Epsilon))))))))))))))
(assert (forall ((Epsilon Real)) (=> (< 0.0 Epsilon) (exists ((Delta Real)) (and (< 0.0 Delta) (forall ((X Real)) (let ((_let_1 (- (tptp.f2 X) tptp.l7))) (let ((_let_2 (>= _let_1 0.0))) (let ((_let_3 (- X tptp.l8))) (let ((_let_4 (>= _let_3 0.0))) (=> (and (not (= X tptp.l8)) (=> _let_4 (< _let_3 Delta)) (=> (not _let_4) (< (- _let_3) Delta))) (and (=> _let_2 (< _let_1 Epsilon)) (=> (not _let_2) (< (- _let_1) Epsilon))))))))))))))
(assert (forall ((Epsilon Real)) (=> (< 0.0 Epsilon) (exists ((Delta Real)) (and (< 0.0 Delta) (forall ((X Real)) (let ((_let_1 (- (tptp.f2 X) tptp.l8))) (let ((_let_2 (>= _let_1 0.0))) (let ((_let_3 (- X tptp.l9))) (let ((_let_4 (>= _let_3 0.0))) (=> (and (not (= X tptp.l9)) (=> _let_4 (< _let_3 Delta)) (=> (not _let_4) (< (- _let_3) Delta))) (and (=> _let_2 (< _let_1 Epsilon)) (=> (not _let_2) (< (- _let_1) Epsilon))))))))))))))
(assert (forall ((Epsilon Real)) (=> (< 0.0 Epsilon) (exists ((Delta Real)) (and (< 0.0 Delta) (forall ((X Real)) (let ((_let_1 (- (tptp.f1 X) tptp.l9))) (let ((_let_2 (>= _let_1 0.0))) (let ((_let_3 (- X tptp.l10))) (let ((_let_4 (>= _let_3 0.0))) (=> (and (not (= X tptp.l10)) (=> _let_4 (< _let_3 Delta)) (=> (not _let_4) (< (- _let_3) Delta))) (and (=> _let_2 (< _let_1 Epsilon)) (=> (not _let_2) (< (- _let_1) Epsilon))))))))))))))
(assert (forall ((Epsilon Real)) (=> (< 0.0 Epsilon) (exists ((Delta Real)) (and (< 0.0 Delta) (forall ((X Real)) (let ((_let_1 (- (tptp.f0 X) tptp.l10))) (let ((_let_2 (>= _let_1 0.0))) (let ((_let_3 (- X tptp.l11))) (let ((_let_4 (>= _let_3 0.0))) (=> (and (not (= X tptp.l11)) (=> _let_4 (< _let_3 Delta)) (=> (not _let_4) (< (- _let_3) Delta))) (and (=> _let_2 (< _let_1 Epsilon)) (=> (not _let_2) (< (- _let_1) Epsilon))))))))))))))
(assert (forall ((Epsilon Real)) (=> (< 0.0 Epsilon) (exists ((Delta Real)) (and (< 0.0 Delta) (forall ((X Real)) (let ((_let_1 (- (tptp.f0 X) tptp.l11))) (let ((_let_2 (>= _let_1 0.0))) (let ((_let_3 (- X tptp.l12))) (let ((_let_4 (>= _let_3 0.0))) (=> (and (not (= X tptp.l12)) (=> _let_4 (< _let_3 Delta)) (=> (not _let_4) (< (- _let_3) Delta))) (and (=> _let_2 (< _let_1 Epsilon)) (=> (not _let_2) (< (- _let_1) Epsilon))))))))))))))
(assert (forall ((Epsilon Real)) (=> (< 0.0 Epsilon) (exists ((Delta Real)) (and (< 0.0 Delta) (forall ((X Real)) (let ((_let_1 (- (tptp.f3 X) tptp.l12))) (let ((_let_2 (>= _let_1 0.0))) (let ((_let_3 (- X tptp.l13))) (let ((_let_4 (>= _let_3 0.0))) (=> (and (not (= X tptp.l13)) (=> _let_4 (< _let_3 Delta)) (=> (not _let_4) (< (- _let_3) Delta))) (and (=> _let_2 (< _let_1 Epsilon)) (=> (not _let_2) (< (- _let_1) Epsilon))))))))))))))
(assert (forall ((Epsilon Real)) (=> (< 0.0 Epsilon) (exists ((Delta Real)) (and (< 0.0 Delta) (forall ((X Real)) (let ((_let_1 (- (tptp.f1 X) tptp.l13))) (let ((_let_2 (>= _let_1 0.0))) (let ((_let_3 (- X tptp.l14))) (let ((_let_4 (>= _let_3 0.0))) (=> (and (not (= X tptp.l14)) (=> _let_4 (< _let_3 Delta)) (=> (not _let_4) (< (- _let_3) Delta))) (and (=> _let_2 (< _let_1 Epsilon)) (=> (not _let_2) (< (- _let_1) Epsilon))))))))))))))
(assert (forall ((Epsilon Real)) (=> (< 0.0 Epsilon) (exists ((Delta Real)) (and (< 0.0 Delta) (forall ((X Real)) (let ((_let_1 (- (tptp.f0 X) tptp.l14))) (let ((_let_2 (>= _let_1 0.0))) (let ((_let_3 (- X tptp.l15))) (let ((_let_4 (>= _let_3 0.0))) (=> (and (not (= X tptp.l15)) (=> _let_4 (< _let_3 Delta)) (=> (not _let_4) (< (- _let_3) Delta))) (and (=> _let_2 (< _let_1 Epsilon)) (=> (not _let_2) (< (- _let_1) Epsilon))))))))))))))
(assert (forall ((Epsilon Real)) (=> (< 0.0 Epsilon) (exists ((Delta Real)) (and (< 0.0 Delta) (forall ((X Real)) (let ((_let_1 (- (tptp.f0 X) tptp.l15))) (let ((_let_2 (>= _let_1 0.0))) (let ((_let_3 (- X tptp.l16))) (let ((_let_4 (>= _let_3 0.0))) (=> (and (not (= X tptp.l16)) (=> _let_4 (< _let_3 Delta)) (=> (not _let_4) (< (- _let_3) Delta))) (and (=> _let_2 (< _let_1 Epsilon)) (=> (not _let_2) (< (- _let_1) Epsilon))))))))))))))
(assert (forall ((Epsilon Real)) (=> (< 0.0 Epsilon) (exists ((Delta Real)) (and (< 0.0 Delta) (forall ((X Real)) (let ((_let_1 (- (tptp.f3 X) tptp.l16))) (let ((_let_2 (>= _let_1 0.0))) (let ((_let_3 (- X tptp.l17))) (let ((_let_4 (>= _let_3 0.0))) (=> (and (not (= X tptp.l17)) (=> _let_4 (< _let_3 Delta)) (=> (not _let_4) (< (- _let_3) Delta))) (and (=> _let_2 (< _let_1 Epsilon)) (=> (not _let_2) (< (- _let_1) Epsilon))))))))))))))
(assert (forall ((Epsilon Real)) (=> (< 0.0 Epsilon) (exists ((Delta Real)) (and (< 0.0 Delta) (forall ((X Real)) (let ((_let_1 (- (tptp.f1 X) tptp.l17))) (let ((_let_2 (>= _let_1 0.0))) (let ((_let_3 (- X tptp.l18))) (let ((_let_4 (>= _let_3 0.0))) (=> (and (not (= X tptp.l18)) (=> _let_4 (< _let_3 Delta)) (=> (not _let_4) (< (- _let_3) Delta))) (and (=> _let_2 (< _let_1 Epsilon)) (=> (not _let_2) (< (- _let_1) Epsilon))))))))))))))
(assert (forall ((Epsilon Real)) (=> (< 0.0 Epsilon) (exists ((Delta Real)) (and (< 0.0 Delta) (forall ((X Real)) (let ((_let_1 (- (tptp.f3 X) tptp.l18))) (let ((_let_2 (>= _let_1 0.0))) (let ((_let_3 (- X tptp.l19))) (let ((_let_4 (>= _let_3 0.0))) (=> (and (not (= X tptp.l19)) (=> _let_4 (< _let_3 Delta)) (=> (not _let_4) (< (- _let_3) Delta))) (and (=> _let_2 (< _let_1 Epsilon)) (=> (not _let_2) (< (- _let_1) Epsilon))))))))))))))
(assert (forall ((Epsilon Real)) (=> (< 0.0 Epsilon) (exists ((Delta Real)) (and (< 0.0 Delta) (forall ((X Real)) (let ((_let_1 (- (tptp.f0 X) tptp.l19))) (let ((_let_2 (>= _let_1 0.0))) (let ((_let_3 (- X tptp.l20))) (let ((_let_4 (>= _let_3 0.0))) (=> (and (not (= X tptp.l20)) (=> _let_4 (< _let_3 Delta)) (=> (not _let_4) (< (- _let_3) Delta))) (and (=> _let_2 (< _let_1 Epsilon)) (=> (not _let_2) (< (- _let_1) Epsilon))))))))))))))
(assert (forall ((Epsilon Real)) (=> (< 0.0 Epsilon) (exists ((Delta Real)) (and (< 0.0 Delta) (forall ((X Real)) (let ((_let_1 (- (tptp.f2 X) tptp.l20))) (let ((_let_2 (>= _let_1 0.0))) (let ((_let_3 (- X tptp.l21))) (let ((_let_4 (>= _let_3 0.0))) (=> (and (not (= X tptp.l21)) (=> _let_4 (< _let_3 Delta)) (=> (not _let_4) (< (- _let_3) Delta))) (and (=> _let_2 (< _let_1 Epsilon)) (=> (not _let_2) (< (- _let_1) Epsilon))))))))))))))
(assert (forall ((Epsilon Real)) (=> (< 0.0 Epsilon) (exists ((Delta Real)) (and (< 0.0 Delta) (forall ((X Real)) (let ((_let_1 (- (tptp.f1 X) tptp.l21))) (let ((_let_2 (>= _let_1 0.0))) (let ((_let_3 (- X tptp.l22))) (let ((_let_4 (>= _let_3 0.0))) (=> (and (not (= X tptp.l22)) (=> _let_4 (< _let_3 Delta)) (=> (not _let_4) (< (- _let_3) Delta))) (and (=> _let_2 (< _let_1 Epsilon)) (=> (not _let_2) (< (- _let_1) Epsilon))))))))))))))
(assert (forall ((Epsilon Real)) (=> (< 0.0 Epsilon) (exists ((Delta Real)) (and (< 0.0 Delta) (forall ((X Real)) (let ((_let_1 (- (tptp.f3 X) tptp.l22))) (let ((_let_2 (>= _let_1 0.0))) (let ((_let_3 (- X tptp.l23))) (let ((_let_4 (>= _let_3 0.0))) (=> (and (not (= X tptp.l23)) (=> _let_4 (< _let_3 Delta)) (=> (not _let_4) (< (- _let_3) Delta))) (and (=> _let_2 (< _let_1 Epsilon)) (=> (not _let_2) (< (- _let_1) Epsilon))))))))))))))
(assert (forall ((Epsilon Real)) (=> (< 0.0 Epsilon) (exists ((Delta Real)) (and (< 0.0 Delta) (forall ((X Real)) (let ((_let_1 (- (tptp.f2 X) tptp.l23))) (let ((_let_2 (>= _let_1 0.0))) (let ((_let_3 (- X tptp.l24))) (let ((_let_4 (>= _let_3 0.0))) (=> (and (not (= X tptp.l24)) (=> _let_4 (< _let_3 Delta)) (=> (not _let_4) (< (- _let_3) Delta))) (and (=> _let_2 (< _let_1 Epsilon)) (=> (not _let_2) (< (- _let_1) Epsilon))))))))))))))
(assert (forall ((Epsilon Real)) (=> (< 0.0 Epsilon) (exists ((Delta Real)) (and (< 0.0 Delta) (forall ((X Real)) (let ((_let_1 (- (tptp.f2 X) tptp.l24))) (let ((_let_2 (>= _let_1 0.0))) (let ((_let_3 (- X tptp.l25))) (let ((_let_4 (>= _let_3 0.0))) (=> (and (not (= X tptp.l25)) (=> _let_4 (< _let_3 Delta)) (=> (not _let_4) (< (- _let_3) Delta))) (and (=> _let_2 (< _let_1 Epsilon)) (=> (not _let_2) (< (- _let_1) Epsilon))))))))))))))
(assert (forall ((Epsilon Real)) (=> (< 0.0 Epsilon) (exists ((Delta Real)) (and (< 0.0 Delta) (forall ((X Real)) (let ((_let_1 (- (tptp.f0 X) tptp.l25))) (let ((_let_2 (>= _let_1 0.0))) (let ((_let_3 (- X tptp.l26))) (let ((_let_4 (>= _let_3 0.0))) (=> (and (not (= X tptp.l26)) (=> _let_4 (< _let_3 Delta)) (=> (not _let_4) (< (- _let_3) Delta))) (and (=> _let_2 (< _let_1 Epsilon)) (=> (not _let_2) (< (- _let_1) Epsilon))))))))))))))
(assert (forall ((Epsilon Real)) (=> (< 0.0 Epsilon) (exists ((Delta Real)) (and (< 0.0 Delta) (forall ((X Real)) (let ((_let_1 (- (tptp.f1 X) tptp.l26))) (let ((_let_2 (>= _let_1 0.0))) (let ((_let_3 (- X tptp.l27))) (let ((_let_4 (>= _let_3 0.0))) (=> (and (not (= X tptp.l27)) (=> _let_4 (< _let_3 Delta)) (=> (not _let_4) (< (- _let_3) Delta))) (and (=> _let_2 (< _let_1 Epsilon)) (=> (not _let_2) (< (- _let_1) Epsilon))))))))))))))
(assert (forall ((Epsilon Real)) (=> (< 0.0 Epsilon) (exists ((Delta Real)) (and (< 0.0 Delta) (forall ((X Real)) (let ((_let_1 (- (tptp.f0 X) tptp.l27))) (let ((_let_2 (>= _let_1 0.0))) (let ((_let_3 (- X tptp.l28))) (let ((_let_4 (>= _let_3 0.0))) (=> (and (not (= X tptp.l28)) (=> _let_4 (< _let_3 Delta)) (=> (not _let_4) (< (- _let_3) Delta))) (and (=> _let_2 (< _let_1 Epsilon)) (=> (not _let_2) (< (- _let_1) Epsilon))))))))))))))
(assert (forall ((Epsilon Real)) (=> (< 0.0 Epsilon) (exists ((Delta Real)) (and (< 0.0 Delta) (forall ((X Real)) (let ((_let_1 (- (tptp.f2 X) tptp.l28))) (let ((_let_2 (>= _let_1 0.0))) (let ((_let_3 (- X tptp.l29))) (let ((_let_4 (>= _let_3 0.0))) (=> (and (not (= X tptp.l29)) (=> _let_4 (< _let_3 Delta)) (=> (not _let_4) (< (- _let_3) Delta))) (and (=> _let_2 (< _let_1 Epsilon)) (=> (not _let_2) (< (- _let_1) Epsilon))))))))))))))
(assert (forall ((Epsilon Real)) (=> (< 0.0 Epsilon) (exists ((Delta Real)) (and (< 0.0 Delta) (forall ((X Real)) (let ((_let_1 (- (tptp.f1 X) tptp.l29))) (let ((_let_2 (>= _let_1 0.0))) (let ((_let_3 (- X tptp.l30))) (let ((_let_4 (>= _let_3 0.0))) (=> (and (not (= X tptp.l30)) (=> _let_4 (< _let_3 Delta)) (=> (not _let_4) (< (- _let_3) Delta))) (and (=> _let_2 (< _let_1 Epsilon)) (=> (not _let_2) (< (- _let_1) Epsilon))))))))))))))
(assert (forall ((Epsilon Real)) (=> (< 0.0 Epsilon) (exists ((Delta Real)) (and (< 0.0 Delta) (forall ((X Real)) (let ((_let_1 (- (tptp.f1 X) tptp.l30))) (let ((_let_2 (>= _let_1 0.0))) (let ((_let_3 (- X tptp.l31))) (let ((_let_4 (>= _let_3 0.0))) (=> (and (not (= X tptp.l31)) (=> _let_4 (< _let_3 Delta)) (=> (not _let_4) (< (- _let_3) Delta))) (and (=> _let_2 (< _let_1 Epsilon)) (=> (not _let_2) (< (- _let_1) Epsilon))))))))))))))
(assert (forall ((Epsilon Real)) (=> (< 0.0 Epsilon) (exists ((Delta Real)) (and (< 0.0 Delta) (forall ((X Real)) (let ((_let_1 (- (tptp.f0 X) tptp.l31))) (let ((_let_2 (>= _let_1 0.0))) (let ((_let_3 (- X tptp.l32))) (let ((_let_4 (>= _let_3 0.0))) (=> (and (not (= X tptp.l32)) (=> _let_4 (< _let_3 Delta)) (=> (not _let_4) (< (- _let_3) Delta))) (and (=> _let_2 (< _let_1 Epsilon)) (=> (not _let_2) (< (- _let_1) Epsilon))))))))))))))
(assert (forall ((Epsilon Real)) (=> (< 0.0 Epsilon) (exists ((Delta Real)) (and (< 0.0 Delta) (forall ((X Real)) (let ((_let_1 (- (tptp.f3 X) tptp.l32))) (let ((_let_2 (>= _let_1 0.0))) (let ((_let_3 (- X tptp.l33))) (let ((_let_4 (>= _let_3 0.0))) (=> (and (not (= X tptp.l33)) (=> _let_4 (< _let_3 Delta)) (=> (not _let_4) (< (- _let_3) Delta))) (and (=> _let_2 (< _let_1 Epsilon)) (=> (not _let_2) (< (- _let_1) Epsilon))))))))))))))
(assert (forall ((Epsilon Real)) (=> (< 0.0 Epsilon) (exists ((Delta Real)) (and (< 0.0 Delta) (forall ((X Real)) (let ((_let_1 (- (tptp.f1 X) tptp.l33))) (let ((_let_2 (>= _let_1 0.0))) (let ((_let_3 (- X tptp.l34))) (let ((_let_4 (>= _let_3 0.0))) (=> (and (not (= X tptp.l34)) (=> _let_4 (< _let_3 Delta)) (=> (not _let_4) (< (- _let_3) Delta))) (and (=> _let_2 (< _let_1 Epsilon)) (=> (not _let_2) (< (- _let_1) Epsilon))))))))))))))
(assert (forall ((Epsilon Real)) (=> (< 0.0 Epsilon) (exists ((Delta Real)) (and (< 0.0 Delta) (forall ((X Real)) (let ((_let_1 (- (tptp.f0 X) tptp.l34))) (let ((_let_2 (>= _let_1 0.0))) (let ((_let_3 (- X tptp.l35))) (let ((_let_4 (>= _let_3 0.0))) (=> (and (not (= X tptp.l35)) (=> _let_4 (< _let_3 Delta)) (=> (not _let_4) (< (- _let_3) Delta))) (and (=> _let_2 (< _let_1 Epsilon)) (=> (not _let_2) (< (- _let_1) Epsilon))))))))))))))
(assert (forall ((Epsilon Real)) (=> (< 0.0 Epsilon) (exists ((Delta Real)) (and (< 0.0 Delta) (forall ((X Real)) (let ((_let_1 (- (tptp.f2 X) tptp.l35))) (let ((_let_2 (>= _let_1 0.0))) (let ((_let_3 (- X tptp.l36))) (let ((_let_4 (>= _let_3 0.0))) (=> (and (not (= X tptp.l36)) (=> _let_4 (< _let_3 Delta)) (=> (not _let_4) (< (- _let_3) Delta))) (and (=> _let_2 (< _let_1 Epsilon)) (=> (not _let_2) (< (- _let_1) Epsilon))))))))))))))
(assert (forall ((Epsilon Real)) (=> (< 0.0 Epsilon) (exists ((Delta Real)) (and (< 0.0 Delta) (forall ((X Real)) (let ((_let_1 (- (tptp.f0 X) tptp.l36))) (let ((_let_2 (>= _let_1 0.0))) (let ((_let_3 (- X tptp.l37))) (let ((_let_4 (>= _let_3 0.0))) (=> (and (not (= X tptp.l37)) (=> _let_4 (< _let_3 Delta)) (=> (not _let_4) (< (- _let_3) Delta))) (and (=> _let_2 (< _let_1 Epsilon)) (=> (not _let_2) (< (- _let_1) Epsilon))))))))))))))
(assert (forall ((Epsilon Real)) (=> (< 0.0 Epsilon) (exists ((Delta Real)) (and (< 0.0 Delta) (forall ((X Real)) (let ((_let_1 (- (tptp.f1 X) tptp.l37))) (let ((_let_2 (>= _let_1 0.0))) (let ((_let_3 (- X tptp.l38))) (let ((_let_4 (>= _let_3 0.0))) (=> (and (not (= X tptp.l38)) (=> _let_4 (< _let_3 Delta)) (=> (not _let_4) (< (- _let_3) Delta))) (and (=> _let_2 (< _let_1 Epsilon)) (=> (not _let_2) (< (- _let_1) Epsilon))))))))))))))
(assert (forall ((Epsilon Real)) (=> (< 0.0 Epsilon) (exists ((Delta Real)) (and (< 0.0 Delta) (forall ((X Real)) (let ((_let_1 (- (tptp.f0 X) tptp.l38))) (let ((_let_2 (>= _let_1 0.0))) (let ((_let_3 (- X tptp.l39))) (let ((_let_4 (>= _let_3 0.0))) (=> (and (not (= X tptp.l39)) (=> _let_4 (< _let_3 Delta)) (=> (not _let_4) (< (- _let_3) Delta))) (and (=> _let_2 (< _let_1 Epsilon)) (=> (not _let_2) (< (- _let_1) Epsilon))))))))))))))
(assert (forall ((Epsilon Real)) (=> (< 0.0 Epsilon) (exists ((Delta Real)) (and (< 0.0 Delta) (forall ((X Real)) (let ((_let_1 (- (tptp.f3 X) tptp.l39))) (let ((_let_2 (>= _let_1 0.0))) (let ((_let_3 (- X tptp.l40))) (let ((_let_4 (>= _let_3 0.0))) (=> (and (not (= X tptp.l40)) (=> _let_4 (< _let_3 Delta)) (=> (not _let_4) (< (- _let_3) Delta))) (and (=> _let_2 (< _let_1 Epsilon)) (=> (not _let_2) (< (- _let_1) Epsilon))))))))))))))
(assert (forall ((Epsilon Real)) (=> (< 0.0 Epsilon) (exists ((Delta Real)) (and (< 0.0 Delta) (forall ((X Real)) (let ((_let_1 (- (tptp.f1 X) tptp.l40))) (let ((_let_2 (>= _let_1 0.0))) (let ((_let_3 (- X tptp.l41))) (let ((_let_4 (>= _let_3 0.0))) (=> (and (not (= X tptp.l41)) (=> _let_4 (< _let_3 Delta)) (=> (not _let_4) (< (- _let_3) Delta))) (and (=> _let_2 (< _let_1 Epsilon)) (=> (not _let_2) (< (- _let_1) Epsilon))))))))))))))
(assert (forall ((Epsilon Real)) (=> (< 0.0 Epsilon) (exists ((Delta Real)) (and (< 0.0 Delta) (forall ((X Real)) (let ((_let_1 (- (tptp.f2 X) tptp.l41))) (let ((_let_2 (>= _let_1 0.0))) (let ((_let_3 (- X tptp.l42))) (let ((_let_4 (>= _let_3 0.0))) (=> (and (not (= X tptp.l42)) (=> _let_4 (< _let_3 Delta)) (=> (not _let_4) (< (- _let_3) Delta))) (and (=> _let_2 (< _let_1 Epsilon)) (=> (not _let_2) (< (- _let_1) Epsilon))))))))))))))
(assert (forall ((Epsilon Real)) (=> (< 0.0 Epsilon) (exists ((Delta Real)) (and (< 0.0 Delta) (forall ((X Real)) (let ((_let_1 (- (tptp.f0 X) tptp.l42))) (let ((_let_2 (>= _let_1 0.0))) (let ((_let_3 (- X tptp.l43))) (let ((_let_4 (>= _let_3 0.0))) (=> (and (not (= X tptp.l43)) (=> _let_4 (< _let_3 Delta)) (=> (not _let_4) (< (- _let_3) Delta))) (and (=> _let_2 (< _let_1 Epsilon)) (=> (not _let_2) (< (- _let_1) Epsilon))))))))))))))
(assert (forall ((Epsilon Real)) (=> (< 0.0 Epsilon) (exists ((Delta Real)) (and (< 0.0 Delta) (forall ((X Real)) (let ((_let_1 (- (tptp.f3 X) tptp.l43))) (let ((_let_2 (>= _let_1 0.0))) (let ((_let_3 (- X tptp.l44))) (let ((_let_4 (>= _let_3 0.0))) (=> (and (not (= X tptp.l44)) (=> _let_4 (< _let_3 Delta)) (=> (not _let_4) (< (- _let_3) Delta))) (and (=> _let_2 (< _let_1 Epsilon)) (=> (not _let_2) (< (- _let_1) Epsilon))))))))))))))
(assert (forall ((Epsilon Real)) (=> (< 0.0 Epsilon) (exists ((Delta Real)) (and (< 0.0 Delta) (forall ((X Real)) (let ((_let_1 (- (tptp.f0 X) tptp.l44))) (let ((_let_2 (>= _let_1 0.0))) (let ((_let_3 (- X tptp.l45))) (let ((_let_4 (>= _let_3 0.0))) (=> (and (not (= X tptp.l45)) (=> _let_4 (< _let_3 Delta)) (=> (not _let_4) (< (- _let_3) Delta))) (and (=> _let_2 (< _let_1 Epsilon)) (=> (not _let_2) (< (- _let_1) Epsilon))))))))))))))
(assert (forall ((Epsilon Real)) (=> (< 0.0 Epsilon) (exists ((Delta Real)) (and (< 0.0 Delta) (forall ((X Real)) (let ((_let_1 (- (tptp.f3 X) tptp.l45))) (let ((_let_2 (>= _let_1 0.0))) (let ((_let_3 (- X tptp.l46))) (let ((_let_4 (>= _let_3 0.0))) (=> (and (not (= X tptp.l46)) (=> _let_4 (< _let_3 Delta)) (=> (not _let_4) (< (- _let_3) Delta))) (and (=> _let_2 (< _let_1 Epsilon)) (=> (not _let_2) (< (- _let_1) Epsilon))))))))))))))
(assert (forall ((Epsilon Real)) (=> (< 0.0 Epsilon) (exists ((Delta Real)) (and (< 0.0 Delta) (forall ((X Real)) (let ((_let_1 (- (tptp.f3 X) tptp.l46))) (let ((_let_2 (>= _let_1 0.0))) (let ((_let_3 (- X tptp.l47))) (let ((_let_4 (>= _let_3 0.0))) (=> (and (not (= X tptp.l47)) (=> _let_4 (< _let_3 Delta)) (=> (not _let_4) (< (- _let_3) Delta))) (and (=> _let_2 (< _let_1 Epsilon)) (=> (not _let_2) (< (- _let_1) Epsilon))))))))))))))
(assert (forall ((Epsilon Real)) (=> (< 0.0 Epsilon) (exists ((Delta Real)) (and (< 0.0 Delta) (forall ((X Real)) (let ((_let_1 (- (tptp.f2 X) tptp.l47))) (let ((_let_2 (>= _let_1 0.0))) (let ((_let_3 (- X tptp.l48))) (let ((_let_4 (>= _let_3 0.0))) (=> (and (not (= X tptp.l48)) (=> _let_4 (< _let_3 Delta)) (=> (not _let_4) (< (- _let_3) Delta))) (and (=> _let_2 (< _let_1 Epsilon)) (=> (not _let_2) (< (- _let_1) Epsilon))))))))))))))
(assert (forall ((Epsilon Real)) (=> (< 0.0 Epsilon) (exists ((Delta Real)) (and (< 0.0 Delta) (forall ((X Real)) (let ((_let_1 (- (tptp.f0 X) tptp.l48))) (let ((_let_2 (>= _let_1 0.0))) (let ((_let_3 (- X tptp.l49))) (let ((_let_4 (>= _let_3 0.0))) (=> (and (not (= X tptp.l49)) (=> _let_4 (< _let_3 Delta)) (=> (not _let_4) (< (- _let_3) Delta))) (and (=> _let_2 (< _let_1 Epsilon)) (=> (not _let_2) (< (- _let_1) Epsilon))))))))))))))
(assert (forall ((Epsilon Real)) (=> (< 0.0 Epsilon) (exists ((Delta Real)) (and (< 0.0 Delta) (forall ((X Real)) (let ((_let_1 (- (tptp.f2 X) tptp.l49))) (let ((_let_2 (>= _let_1 0.0))) (let ((_let_3 (- X tptp.l50))) (let ((_let_4 (>= _let_3 0.0))) (=> (and (not (= X tptp.l50)) (=> _let_4 (< _let_3 Delta)) (=> (not _let_4) (< (- _let_3) Delta))) (and (=> _let_2 (< _let_1 Epsilon)) (=> (not _let_2) (< (- _let_1) Epsilon))))))))))))))
(assert (forall ((Epsilon Real)) (=> (< 0.0 Epsilon) (exists ((Delta Real)) (and (< 0.0 Delta) (forall ((X Real)) (let ((_let_1 (- (tptp.f0 X) tptp.l50))) (let ((_let_2 (>= _let_1 0.0))) (let ((_let_3 (- X tptp.l51))) (let ((_let_4 (>= _let_3 0.0))) (=> (and (not (= X tptp.l51)) (=> _let_4 (< _let_3 Delta)) (=> (not _let_4) (< (- _let_3) Delta))) (and (=> _let_2 (< _let_1 Epsilon)) (=> (not _let_2) (< (- _let_1) Epsilon))))))))))))))
(assert (forall ((Epsilon Real)) (=> (< 0.0 Epsilon) (exists ((Delta Real)) (and (< 0.0 Delta) (forall ((X Real)) (let ((_let_1 (- (tptp.f2 X) tptp.l51))) (let ((_let_2 (>= _let_1 0.0))) (let ((_let_3 (- X tptp.l52))) (let ((_let_4 (>= _let_3 0.0))) (=> (and (not (= X tptp.l52)) (=> _let_4 (< _let_3 Delta)) (=> (not _let_4) (< (- _let_3) Delta))) (and (=> _let_2 (< _let_1 Epsilon)) (=> (not _let_2) (< (- _let_1) Epsilon))))))))))))))
(assert (forall ((Epsilon Real)) (=> (< 0.0 Epsilon) (exists ((Delta Real)) (and (< 0.0 Delta) (forall ((X Real)) (let ((_let_1 (- (tptp.f1 X) tptp.l52))) (let ((_let_2 (>= _let_1 0.0))) (let ((_let_3 (- X tptp.l53))) (let ((_let_4 (>= _let_3 0.0))) (=> (and (not (= X tptp.l53)) (=> _let_4 (< _let_3 Delta)) (=> (not _let_4) (< (- _let_3) Delta))) (and (=> _let_2 (< _let_1 Epsilon)) (=> (not _let_2) (< (- _let_1) Epsilon))))))))))))))
(assert (forall ((Epsilon Real)) (=> (< 0.0 Epsilon) (exists ((Delta Real)) (and (< 0.0 Delta) (forall ((X Real)) (let ((_let_1 (- (tptp.f2 X) tptp.l53))) (let ((_let_2 (>= _let_1 0.0))) (let ((_let_3 (- X tptp.l54))) (let ((_let_4 (>= _let_3 0.0))) (=> (and (not (= X tptp.l54)) (=> _let_4 (< _let_3 Delta)) (=> (not _let_4) (< (- _let_3) Delta))) (and (=> _let_2 (< _let_1 Epsilon)) (=> (not _let_2) (< (- _let_1) Epsilon))))))))))))))
(assert (forall ((Epsilon Real)) (=> (< 0.0 Epsilon) (exists ((Delta Real)) (and (< 0.0 Delta) (forall ((X Real)) (let ((_let_1 (- (tptp.f3 X) tptp.l54))) (let ((_let_2 (>= _let_1 0.0))) (let ((_let_3 (- X tptp.l55))) (let ((_let_4 (>= _let_3 0.0))) (=> (and (not (= X tptp.l55)) (=> _let_4 (< _let_3 Delta)) (=> (not _let_4) (< (- _let_3) Delta))) (and (=> _let_2 (< _let_1 Epsilon)) (=> (not _let_2) (< (- _let_1) Epsilon))))))))))))))
(assert (forall ((Epsilon Real)) (=> (< 0.0 Epsilon) (exists ((Delta Real)) (and (< 0.0 Delta) (forall ((X Real)) (let ((_let_1 (- (tptp.f0 X) tptp.l55))) (let ((_let_2 (>= _let_1 0.0))) (let ((_let_3 (- X tptp.l56))) (let ((_let_4 (>= _let_3 0.0))) (=> (and (not (= X tptp.l56)) (=> _let_4 (< _let_3 Delta)) (=> (not _let_4) (< (- _let_3) Delta))) (and (=> _let_2 (< _let_1 Epsilon)) (=> (not _let_2) (< (- _let_1) Epsilon))))))))))))))
(assert (forall ((Epsilon Real)) (=> (< 0.0 Epsilon) (exists ((Delta Real)) (and (< 0.0 Delta) (forall ((X Real)) (let ((_let_1 (- (tptp.f2 X) tptp.l56))) (let ((_let_2 (>= _let_1 0.0))) (let ((_let_3 (- X tptp.l57))) (let ((_let_4 (>= _let_3 0.0))) (=> (and (not (= X tptp.l57)) (=> _let_4 (< _let_3 Delta)) (=> (not _let_4) (< (- _let_3) Delta))) (and (=> _let_2 (< _let_1 Epsilon)) (=> (not _let_2) (< (- _let_1) Epsilon))))))))))))))
(assert (forall ((Epsilon Real)) (=> (< 0.0 Epsilon) (exists ((Delta Real)) (and (< 0.0 Delta) (forall ((X Real)) (let ((_let_1 (- (tptp.f3 X) tptp.l57))) (let ((_let_2 (>= _let_1 0.0))) (let ((_let_3 (- X tptp.l58))) (let ((_let_4 (>= _let_3 0.0))) (=> (and (not (= X tptp.l58)) (=> _let_4 (< _let_3 Delta)) (=> (not _let_4) (< (- _let_3) Delta))) (and (=> _let_2 (< _let_1 Epsilon)) (=> (not _let_2) (< (- _let_1) Epsilon))))))))))))))
(assert (forall ((Epsilon Real)) (=> (< 0.0 Epsilon) (exists ((Delta Real)) (and (< 0.0 Delta) (forall ((X Real)) (let ((_let_1 (- (tptp.f2 X) tptp.l58))) (let ((_let_2 (>= _let_1 0.0))) (let ((_let_3 (- X tptp.l59))) (let ((_let_4 (>= _let_3 0.0))) (=> (and (not (= X tptp.l59)) (=> _let_4 (< _let_3 Delta)) (=> (not _let_4) (< (- _let_3) Delta))) (and (=> _let_2 (< _let_1 Epsilon)) (=> (not _let_2) (< (- _let_1) Epsilon))))))))))))))
(assert (forall ((Epsilon Real)) (=> (< 0.0 Epsilon) (exists ((Delta Real)) (and (< 0.0 Delta) (forall ((X Real)) (let ((_let_1 (- (tptp.f0 X) tptp.l59))) (let ((_let_2 (>= _let_1 0.0))) (let ((_let_3 (- X tptp.l60))) (let ((_let_4 (>= _let_3 0.0))) (=> (and (not (= X tptp.l60)) (=> _let_4 (< _let_3 Delta)) (=> (not _let_4) (< (- _let_3) Delta))) (and (=> _let_2 (< _let_1 Epsilon)) (=> (not _let_2) (< (- _let_1) Epsilon))))))))))))))
(assert (forall ((Epsilon Real)) (=> (< 0.0 Epsilon) (exists ((Delta Real)) (and (< 0.0 Delta) (forall ((X Real)) (let ((_let_1 (- (tptp.f0 X) tptp.l60))) (let ((_let_2 (>= _let_1 0.0))) (let ((_let_3 (- X tptp.l61))) (let ((_let_4 (>= _let_3 0.0))) (=> (and (not (= X tptp.l61)) (=> _let_4 (< _let_3 Delta)) (=> (not _let_4) (< (- _let_3) Delta))) (and (=> _let_2 (< _let_1 Epsilon)) (=> (not _let_2) (< (- _let_1) Epsilon))))))))))))))
(assert (forall ((Epsilon Real)) (=> (< 0.0 Epsilon) (exists ((Delta Real)) (and (< 0.0 Delta) (forall ((X Real)) (let ((_let_1 (- (tptp.f2 X) tptp.l61))) (let ((_let_2 (>= _let_1 0.0))) (let ((_let_3 (- X tptp.l62))) (let ((_let_4 (>= _let_3 0.0))) (=> (and (not (= X tptp.l62)) (=> _let_4 (< _let_3 Delta)) (=> (not _let_4) (< (- _let_3) Delta))) (and (=> _let_2 (< _let_1 Epsilon)) (=> (not _let_2) (< (- _let_1) Epsilon))))))))))))))
(assert (forall ((Epsilon Real)) (=> (< 0.0 Epsilon) (exists ((Delta Real)) (and (< 0.0 Delta) (forall ((X Real)) (let ((_let_1 (- (tptp.f3 X) tptp.l62))) (let ((_let_2 (>= _let_1 0.0))) (let ((_let_3 (- X tptp.l63))) (let ((_let_4 (>= _let_3 0.0))) (=> (and (not (= X tptp.l63)) (=> _let_4 (< _let_3 Delta)) (=> (not _let_4) (< (- _let_3) Delta))) (and (=> _let_2 (< _let_1 Epsilon)) (=> (not _let_2) (< (- _let_1) Epsilon))))))))))))))
(assert (forall ((Epsilon Real)) (=> (< 0.0 Epsilon) (exists ((Delta Real)) (and (< 0.0 Delta) (forall ((X Real)) (let ((_let_1 (- (tptp.f1 X) tptp.l63))) (let ((_let_2 (>= _let_1 0.0))) (let ((_let_3 (- X tptp.a))) (let ((_let_4 (>= _let_3 0.0))) (=> (and (not (= X tptp.a)) (=> _let_4 (< _let_3 Delta)) (=> (not _let_4) (< (- _let_3) Delta))) (and (=> _let_2 (< _let_1 Epsilon)) (=> (not _let_2) (< (- _let_1) Epsilon))))))))))))))
(assert (not (forall ((Epsilon Real)) (=> (< 0.0 Epsilon) (exists ((Delta Real)) (and (< 0.0 Delta) (forall ((X Real)) (let ((_let_1 (- (tptp.f3 (tptp.f2 (tptp.f1 (tptp.f0 (tptp.f1 (tptp.f3 (tptp.f1 (tptp.f2 (tptp.f2 (tptp.f1 (tptp.f0 (tptp.f0 (tptp.f3 (tptp.f1 (tptp.f0 (tptp.f0 (tptp.f3 (tptp.f1 (tptp.f3 (tptp.f0 (tptp.f2 (tptp.f1 (tptp.f3 (tptp.f2 (tptp.f2 (tptp.f0 (tptp.f1 (tptp.f0 (tptp.f2 (tptp.f1 (tptp.f1 (tptp.f0 (tptp.f3 (tptp.f1 (tptp.f0 (tptp.f2 (tptp.f0 (tptp.f1 (tptp.f0 (tptp.f3 (tptp.f1 (tptp.f2 (tptp.f0 (tptp.f3 (tptp.f0 (tptp.f3 (tptp.f3 (tptp.f2 (tptp.f0 (tptp.f2 (tptp.f0 (tptp.f2 (tptp.f1 (tptp.f2 (tptp.f3 (tptp.f0 (tptp.f2 (tptp.f3 (tptp.f2 (tptp.f0 (tptp.f0 (tptp.f2 (tptp.f3 (tptp.f1 X)))))))))))))))))))))))))))))))))))))))))))))))))))))))))))))))) tptp.l))) (let ((_let_2 (>= _let_1 0.0))) (let ((_let_3 (- X tptp.a))) (let ((_let_4 (>= _let_3 0.0))) (=> (and (not (= X tptp.a)) (=> _let_4 (< _let_3 Delta)) (=> (not _let_4) (< (- _let_3) Delta))) (and (=> _let_2 (< _let_1 Epsilon)) (=> (not _let_2) (< (- _let_1) Epsilon)))))))))))))))
(check-sat)
